QBPP_HJ-_35_025_06_4
35 311 63
12 49 32 4 27 15 36 22 45 31 29 4 5 18 48 31 40 1 21 36 49 19 30 15 35 34 44 40 19 49 26 40 1 4 22
    0  -99    0    0  -48  -21  -83    0  -21  -28   -9   -3  -26    0    0  -60    0    0    0  -89    0    0    0  -98    0    0  -68    0    0    0    0    0  -11  -90    0
  -99    0    0    0    0  -77  -29    0  -92  -78    0    0  -48    0  -27    0    0    0    0    0    0   -6   -5    0  -73    0    0    0    0    0  -93    0    0  -35  -61
    0    0    0    0  -62    0    0    0  -44  -61  -23    0  -99    0    0    0  -67    0    0    0  -88    0  -98  -17    0    0    0    0    0    0    0  -24    0  -13    0
    0    0    0    0    0    0    0  -10    0    0    0    0  -28    0    0    0    0    0    0    0    0    0    0    0    0    0  -73    0    0  -17  -38    0    0    0  -98
  -48    0  -62    0    0  -34  -45  -77    0    0    0    0    0  -60    0    0    0    0    0    0    0    0  -37    0    0   -8    0    0    0    0    0  -65    0    0    0
  -21  -77    0    0  -34    0    0  -92  -30    0    0    0    0    0    0    0    0  -58    0    0    0    0    0    0    0    0    0  -17    0    0  -89    0    0  -21  -39
  -83  -29    0    0  -45    0    0    0    0  -48  -16    0  -68  -26    0    0    0    0    0    0    0  -30  -96    0    0    0    0    0    0    0    0  -82    0    0    0
    0    0    0  -10  -77  -92    0    0    0    0    0    0    0    0  -24    0    0    0    0    0    0  -48    0    0  -31    0    0    0  -91    0    0    0    0    0    0
  -21  -92  -44    0    0  -30    0    0    0    0    0  -83  -98   -9    0  -40    0    0    0    0  -19    0    0    0    0  -30   -7    0  -74    0    0    0    0    0    0
  -28  -78  -61    0    0    0  -48    0    0    0    0  -12    0  -19    0  -50    0    0    0    0    0   -7    0    0  -54  -35    0    0    0    0    0    0    0   -7  -29
   -9    0  -23    0    0    0  -16    0    0    0    0    0    0    0    0    0    0    0    0  -77    0    0  -25  -67    0    0    0    0    0    0  -57    0    0    0  -97
   -3    0    0    0    0    0    0    0  -83  -12    0    0    0  -40    0    0    0    0  -34    0    0  -87    0    0    0    0    0    0    0    0    0   -4    0    0  -40
  -26  -48  -99  -28    0    0  -68    0  -98    0    0    0    0  -66  -15    0  -56    0    0    0    0    0    0    0    0  -14    0    0    0    0    0    0    0    0    0
    0    0    0    0  -60    0  -26    0   -9  -19    0  -40  -66    0    0    0    0  -28  -83    0   -6    0    0    0    0    0  -24    0    0    0    0    0    0    0    0
    0  -27    0    0    0    0    0  -24    0    0    0    0  -15    0    0  -51    0  -62    0  -87    0    0    0    0  -92    0    0    0    0    0    0    0    0    0    0
  -60    0    0    0    0    0    0    0  -40  -50    0    0    0    0  -51    0    0    0    0    0    0    0    0    0    0    0    0  -73    0    0    0    0    0  -54    0
    0    0  -67    0    0    0    0    0    0    0    0    0  -56    0    0    0    0    0    0    0  -38  -39  -32    0    0    0    0    0    0    0  -37    0    0    0    0
    0    0    0    0    0  -58    0    0    0    0    0    0    0  -28  -62    0    0    0    0    0    0    0    0    0  -73    0  -67    0  -88    0    0  -67  -38    0    0
    0    0    0    0    0    0    0    0    0    0    0  -34    0  -83    0    0    0    0    0    0    0    0  -81    0  -57    0    0    0    0    0  -20    0  -30  -41    0
  -89    0    0    0    0    0    0    0    0    0  -77    0    0    0  -87    0    0    0    0    0    0  -42  -99    0    0    0  -62    0    0    0    0    0  -81  -71  -97
    0    0  -88    0    0    0    0    0  -19    0    0    0    0   -6    0    0  -38    0    0    0    0    0  -58    0    0    0    0    0    0    0    0    0    0  -20    0
    0   -6    0    0    0    0  -30  -48    0   -7    0  -87    0    0    0    0  -39    0    0  -42    0    0    0    0    0    0    0    0    0    0    0    0    0    0    0
    0   -5  -98    0  -37    0  -96    0    0    0  -25    0    0    0    0    0  -32    0  -81  -99  -58    0    0    0    0    0  -27    0    0    0  -98  -90    0    0    0
  -98    0  -17    0    0    0    0    0    0    0  -67    0    0    0    0    0    0    0    0    0    0    0    0    0    0    0    0  -41  -83    0    0    0    0    0  -19
    0  -73    0    0    0    0    0  -31    0  -54    0    0    0    0  -92    0    0  -73  -57    0    0    0    0    0    0  -35    0    0    0    0    0    0    0    0  -21
    0    0    0    0   -8    0    0    0  -30  -35    0    0  -14    0    0    0    0    0    0    0    0    0    0    0  -35    0    0  -46  -52    0    0    0  -87    0  -86
  -68    0    0  -73    0    0    0    0   -7    0    0    0    0  -24    0    0    0  -67    0  -62    0    0  -27    0    0    0    0    0    0  -43    0  -43    0    0    0
    0    0    0    0    0  -17    0    0    0    0    0    0    0    0    0  -73    0    0    0    0    0    0    0  -41    0  -46    0    0    0    0    0    0    0    0    0
    0    0    0    0    0    0    0  -91  -74    0    0    0    0    0    0    0    0  -88    0    0    0    0    0  -83    0  -52    0    0    0    0    0  -35    0    0  -27
    0    0    0  -17    0    0    0    0    0    0    0    0    0    0    0    0    0    0    0    0    0    0    0    0    0    0  -43    0    0    0  -32    0    0    0  -88
    0  -93    0  -38    0  -89    0    0    0    0  -57    0    0    0    0    0  -37    0  -20    0    0    0  -98    0    0    0    0    0    0  -32    0    0    0    0    0
    0    0  -24    0  -65    0  -82    0    0    0    0   -4    0    0    0    0    0  -67    0    0    0    0  -90    0    0    0  -43    0  -35    0    0    0    0    0  -92
  -11    0    0    0    0    0    0    0    0    0    0    0    0    0    0    0    0  -38  -30  -81    0    0    0    0    0  -87    0    0    0    0    0    0    0  -48    0
  -90  -35  -13    0    0  -21    0    0    0   -7    0    0    0    0    0  -54    0    0  -41  -71  -20    0    0    0    0    0    0    0    0    0    0    0  -48    0  -61
    0  -61    0  -98    0  -39    0    0    0  -29  -97  -40    0    0    0    0    0    0    0  -97    0    0    0  -19  -21  -86    0    0  -27  -88    0  -92    0  -61    0
